# Solution for model micodag
# Objective value = 8.0009314580085054e+00
s_0_1 0
s_1_0 0
s_0_2 0
s_2_0 0
s_0_4 0
s_4_0 2.4536684920939633e-01
s_1_2 0
s_2_1 4.4664191171910206e-01
s_1_3 0
s_3_1 2.6238546981941147e-01
s_2_4 0
s_4_2 4.5263626601139384e-01
s_4_5 0
s_5_4 2.7105497594661094e+00
s_0_0 7.3786096043349647e-01
s_1_1 7.2476790934437840e-01
s_2_2 6.6501327881192118e-01
s_3_3 6.7823464413810663e-01
s_4_4 2.7105497594661094e+00
s_5_5 9.9873046630680884e-01
Gamma_0_0 8.5898833544670239e-01
Gamma_0_1 0
Gamma_0_2 0
Gamma_0_3 0
Gamma_0_4 0
Gamma_0_5 0
Gamma_1_0 0
Gamma_1_1 8.5133301906150594e-01
Gamma_1_2 0
Gamma_1_3 0
Gamma_1_4 0
Gamma_1_5 0
Gamma_2_0 0
Gamma_2_1 6.6831273496702281e-01
Gamma_2_2 8.1548346323633170e-01
Gamma_2_3 0
Gamma_2_4 0
Gamma_2_5 0
Gamma_3_0 0
Gamma_3_1 5.1223575609226213e-01
Gamma_3_2 0
Gamma_3_3 8.2355002527964682e-01
Gamma_3_4 0
Gamma_3_5 0
Gamma_4_0 -4.9534518187764465e-01
Gamma_4_1 0
Gamma_4_2 -6.7278248045813027e-01
Gamma_4_3 0
Gamma_4_4 8.3250116072134528e-01
Gamma_4_5 0
Gamma_5_0 0
Gamma_5_1 0
Gamma_5_2 0
Gamma_5_3 0
Gamma_5_4 -7.8512796865769230e-01
Gamma_5_5 9.9936503156094514e-01
psi_0 2
psi_1 3
psi_2 2
psi_3 0
psi_4 1
psi_5 0
g_0_0 0
g_0_1 0
g_0_2 0
g_0_3 0
g_0_4 0
g_0_5 0
g_1_0 0
g_1_1 0
g_1_2 0
g_1_3 0
g_1_4 0
g_1_5 0
g_2_0 0
g_2_1 1
g_2_2 0
g_2_3 0
g_2_4 0
g_2_5 0
g_3_0 0
g_3_1 1
g_3_2 0
g_3_3 0
g_3_4 0
g_3_5 0
g_4_0 1
g_4_1 0
g_4_2 1
g_4_3 0
g_4_4 0
g_4_5 0
g_5_0 0
g_5_1 0
g_5_2 0
g_5_3 0
g_5_4 1
g_5_5 0
T_0 3.0399987262788386e-01
T_1 3.2190380042065669e-01
T_2 0.407948270387422
T_3 3.8826196811501745e-01
T_4 3.6664132573727670e-01
T_5 1.2703402337876923e-03
